p cnf 10 50
1 6 -8 0
-5 -3 -2 0
-7 4 8 0
7 -2 3 0
-7 -9 4 0
-7 4 -5 0
9 10 4 0
-5 1 -7 0
-4 9 -3 0
6 4 -3 0
7 3 5 0
1 10 7 0
6 2 10 0
-7 5 8 0
-9 4 7 0
-5 -6 -7 0
-2 -7 -8 0
2 -10 9 0
-4 -7 -10 0
9 3 -1 0
-9 -3 -1 0
-3 -5 -1 0
7 -1 6 0
-9 -1 3 0
-2 4 1 0
3 9 8 0
8 6 -10 0
-8 -3 -10 0
-1 5 2 0
5 2 -4 0
4 -1 -8 0
4 5 -8 0
-6 9 4 0
3 -9 7 0
-1 -2 -10 0
-8 -10 -2 0
-8 5 -1 0
-4 10 5 0
-8 5 2 0
7 -4 8 0
-5 6 -8 0
-10 7 6 0
-8 -7 6 0
10 8 2 0
3 8 7 0
4 1 9 0
2 7 8 0
9 7 6 0
-8 10 9 0
-5 3 -1 0